(declare-fun p1_arr_0_1 () Int)
(declare-fun p1_arr_1_1 () Int)
(declare-fun p1_arr_2_1 () Int)
(declare-fun p1_i_1 () Int)
(declare-fun p1_i_2 () Int)
(declare-fun p1_i_3 () Int)
(declare-fun p1_i_4 () Int)
(declare-fun p1_i_5 () Int)
(declare-fun p1_j_1 () Int)
(declare-fun p1_j_10 () Int)
(declare-fun p1_j_11 () Int)
(declare-fun p1_j_12 () Int)
(declare-fun p1_j_13 () Int)
(declare-fun p1_j_14 () Int)
(declare-fun p1_j_15 () Int)
(declare-fun p1_j_2 () Int)
(declare-fun p1_j_3 () Int)
(declare-fun p1_j_4 () Int)
(declare-fun p1_j_5 () Int)
(declare-fun p1_j_6 () Int)
(declare-fun p1_j_7 () Int)
(declare-fun p1_j_8 () Int)
(declare-fun p1_j_9 () Int)
(declare-fun p1_n_1_1 () Int)

(assert (= p1_n_1_1 3))
(assert (= p1_arr_0_1 1))
(assert (= p1_arr_1_1 2))
(assert (= p1_arr_2_1 3))
(assert (= p1_i_1 0))
(assert (= p1_j_1 0))
(assert (= p1_j_2 (+ p1_j_2 1)))
(assert (= p1_j_3 (+ p1_j_3 1)))
(assert (= p1_j_4 (+ p1_j_4 1)))
(assert (= p1_j_5 (ite true p1_j_0 p1_j_4)))
(assert (= p1_i_2 (+ p1_i_2 1)))
(assert (= p1_j_6 0))
(assert (= p1_j_7 (+ p1_j_7 1)))
(assert (= p1_j_8 (+ p1_j_8 1)))
(assert (= p1_j_9 (+ p1_j_9 1)))
(assert (= p1_j_10 (ite true p1_j_0 p1_j_9)))
(assert (= p1_i_3 (+ p1_i_3 1)))
(assert (= p1_j_11 0))
(assert (= p1_j_12 (+ p1_j_12 1)))
(assert (= p1_j_13 (+ p1_j_13 1)))
(assert (= p1_j_14 (+ p1_j_14 1)))
(assert (= p1_j_15 (ite true p1_j_0 p1_j_14)))
(assert (= p1_i_4 (+ p1_i_4 1)))
(assert (= p1_i_5 (ite true p1_i_0 p1_i_4)))

(check-sat)
(get-model)